10
1 0 7
2 0 14
2 1 4
3 0 8
3 1 2
3 2 3
4 0 10
4 1 20
4 2 6
4 3 8
5 0 2
5 1 13
5 2 2
5 3 2
5 4 14
6 0 19
6 1 3
6 2 5
6 3 10
6 4 4
6 5 10
7 0 6
7 1 6
7 2 12
7 3 9
7 4 16
7 5 12
7 6 5
8 0 18
8 1 1
8 2 6
8 3 19
8 4 7
8 5 15
8 6 7
8 7 15
9 0 8
9 1 1
9 2 8
9 3 11
9 4 4
9 5 12
9 6 3
9 7 16
9 8 10
